p cnf 19 11
a 1 2 3 0
e 4 5 0
a 6 0
e 7 0
a 8 0
e 9 10 11 12 0
a 13 0
e 14 0
a 15 0
e 16 0
a 17 18 19 0
-17 18 -2 -19 0
15 -19 0
12 -2 7 10 -4 0
15 17 12 11 0
13 -4 -12 0
14 -5 -12 0
14 -6 10 0
-2 6 5 9 10 0
5 -16 -11 -17 0
-14 19 -8 -17 0
19 -9 -15 0
